c Random Network
p max    10      20
n         1  s
n        10  t
a       9       2       4
a       2       4      47
a       4       6       7
a       1       2      48
a       5       1       7
a       5       9      18
a       2       1      35
a       3       2      33
a       8       1      34
a       4      10      29
a       7       3      14
a       9       1      34
a       4       5       2
a       5       3      32
a       1       7      31
a       8       4      50
a       1       5      14
a      10       5      40
a       1       3      17
a       9       5      40
